WARNING: for repeatability, setting FPU to use double precision
============================[ Problem Statistics ]=============================
|                                                                             |
|  Number of variables:         14634                                         |
|  Number of clauses:          426662                                         |
|  Parse time:                   0.11 s                                       |
|  Eliminated clauses:           0.08 Mb                                      |
|  Simplification time:          0.52 s                                       |
|                                                                             |
============================[ Search Statistics ]==============================
| Conflicts |          ORIGINAL         |          LEARNT          | Progress |
|           |    Vars  Clauses Literals |    Limit  Clauses Lit/Cl |          |
===============================================================================
|       100 |    6712    91107   191957 |    33405       98      8 | 38.042 % |
===============================================================================
restarts              : 2
conflicts             : 154            (240 /sec)
decisions             : 485            (0.00 % random) (757 /sec)
propagations          : 57657          (90001 /sec)
conflict literals     : 1684           (14.52 % deleted)
Memory used           : 43.83 MB
CPU time              : 0.640625 s

SATISFIABLE
